Bin size: 100
Number of elements: 200
14
23
75
22
81
44
22
28
67
75
81
58
68
29
42
20
51
22
99
93
80
66
69
17
49
60
12
40
5
76
99
16
79
23
73
20
53
21
49
80
74
26
65
32
73
70
23
70
22
70
29
10
4
87
66
71
64
14
28
72
80
28
2
23
81
8
56
48
28
30
28
36
94
49
34
44
5
29
93
63
17
60
42
76
76
94
2
34
83
61
64
46
22
83
39
12
22
100
98
86
15
95
17
89
42
71
83
12
85
40
20
17
22
96
34
45
22
16
50
2
27
6
73
72
55
11
28
95
15
60
62
82
73
57
65
76
88
100
65
22
72
9
89
94
59
95
29
55
49
79
32
23
61
57
23
70
55
79
4
83
39
77
26
25
6
71
28
65
80
9
88
37
38
6
55
68
18
48
84
49
61
67
22
11
72
58
37
87
10
84
44
36
93
59
15
42
29
77
42
40